NAME          DRY
ROWS
 G  N
 G  P
 G  K
 L  AM-N
 G  NI-N
 G  UR-N
 G  SLOW
 G  WI-N
 G  COAT
 G  CA
 G  ZN
 G  B
 G  CU
 G  FE
 G  FE/C
 G  MO
 G  MG
 G  WSMG
 G  S
 G  S
 G  MN
 G  WSMN
 L  CL
 G  DEN
 E  WT
 N  COST
 N  PRICE
COLUMNS
*234567890123456789012345678901234567890123456789012345678901
    I460000   N             0.460000   UR-N          0.460000   
    I460000   DEN           0.020833   WT            1.000000   
    I460000   COST        160.000000   PRICE       200.000000   
    I460000   SCALE      2000.000000   
    I340000   N             0.340000   AM-N          0.167500   
    I340000   NI-N          0.167500   DEN           0.022222   
    I340000   WT            1.000000   COST        135.000000   
    I340000   PRICE       168.750000   SCALE      2000.000000   
    I210000   N             0.210000   AM-N          0.210000   
    I210000   S             0.240000   DEN           0.020408   
    I210000   WT            1.000000   COST        110.000000   
    I210000   PRICE       137.500000   SCALE      2000.000000   
    I360000   N             0.360000   UR-N          0.360000   
    I360000   COAT          0.150000   S             0.120000   
    I360000   S             0.120000   DEN           0.021739   
    I360000   WT            1.000000   COST        370.000000   
    I360000   PRICE       462.500000   SCALE      2000.000000   
    I380000   N             0.380000   UR-N          0.110000   
    I380000   SLOW          0.110000   WI-N          0.270000   
    I380000   DEN           0.021739   WT            1.000000   
    I380000   COST        550.000000   PRICE       687.500000   
    I380000   SCALE      2000.000000   
    I260000   N             0.260000   UR-N          0.060000   
    I260000   SLOW          0.060000   WI-N          0.200000   
    I260000   DEN           0.021739   WT            1.000000   
    I260000   COST        375.000000   PRICE       468.750000   
    I260000   SCALE      2000.000000   
    I400000   N             0.400000   UR-N          0.280000   
    I400000   SLOW          0.280000   WI-N          0.120000   
    I400000   DEN           0.020000   WT            1.000000   
    I400000   COST        415.000000   PRICE       518.750000   
    I400000   SCALE      2000.000000   
    I050400   N             0.050000   P             0.040000   
    I050400   UR-N          0.010000   SLOW          0.010000   
    I050400   WI-N          0.040000   DEN           0.033333   
    I050400   WT            1.000000   COST        120.000000   
    I050400   PRICE       150.000000   SCALE      2000.000000   
    I110000   N             0.110000   UR-N          0.010000   
    I110000   SLOW          0.010000   WI-N          0.100000   
    I110000   DEN           0.021739   WT            1.000000   
    I110000   COST        200.000000   PRICE       250.000000   
    I110000   SCALE      2000.000000   
    I150000   N             0.155000   NI-N          0.155000   
    I150000   CA            0.190000   DEN           0.013333   
    I150000   WT            1.000000   COST        130.000000   
    I150000   PRICE       162.500000   SCALE      2000.000000   
    I184600   N             0.180000   P             0.460000   
    I184600   AM-N          0.180000   DEN           0.016000   
    I184600   WT            1.000000   COST        183.000000   
    I184600   PRICE       228.750000   SCALE      2000.000000   
    I162000   N             0.160000   P             0.200000   
    I162000   S             0.140000   DEN           0.018519   
    I162000   WT            1.000000   COST        127.000000   
    I162000   PRICE       228.750000   SCALE      2000.000000   
    I115200   N             0.110000   P             0.520000   
    I115200   DEN           0.017986   WT            1.000000   
    I115200   COST        183.000000   PRICE       228.750000   
    I115200   SCALE      2000.000000   
    I105000   N             0.100000   P             0.500000   
    I105000   AM-N          0.100000   DEN           0.015385   
    I105000   WT            1.000000   COST        176.000000   
    I105000   PRICE       220.000000   SCALE      2000.000000   
    I002000   P             0.200000   CA            0.200000   
    I002000   S             0.110000   DEN           0.015850   
    I002000   WT            1.000000   COST         80.000000   
    I002000   PRICE       100.000000   SCALE      2000.000000   
    I004600   P             0.460000   DEN           0.014306   
    I004600   WT            1.000000   COST        140.000000   
    I004600   PRICE       175.000000   SCALE      2000.000000   
    I000060   K             0.600000   CL            0.510000   
    I000060   DEN           0.015408   WT            1.000000   
    I000060   COST         90.000000   PRICE       112.500000   
    I000060   SCALE      2000.000000   
    I000050   K             0.500000   S             0.170000   
    I000050   DEN           0.013514   WT            1.000000   
    I000050   COST        240.000000   PRICE       300.000000   
    I000050   SCALE      2000.000000   
    I000022   K             0.220000   MG            0.110000   
    I000022   WSMG          0.110000   S             0.220000   
    I000022   DEN           0.010246   WT            1.000000   
    I000022   COST        125.000000   PRICE       156.250000   
    I000022   SCALE      2000.000000   
    I16MG00   MG            0.165000   DEN           0.015000   
    I16MG00   WT            1.000000   COST        100.000000   
    I16MG00   PRICE       125.000000   SCALE      2000.000000   
    I130044   N             0.130000   K             0.440000   
    I130044   NI-N          0.130000   DEN           0.014286   
    I130044   WT            1.000000   COST        277.000000   
    I130044   PRICE       346.250000   SCALE      2000.000000   
    I14B000   B             0.143000   DEN           0.021882   
    I14B000   WT            1.000000   COST        420.000000   
    I14B000   PRICE       525.000000   SCALE      2000.000000   
    I50CU00   CU            0.250000   DEN           0.016667   
    I50CU00   WT            1.000000   COST        900.000000   
    I50CU00   PRICE      1125.000000   SCALE      2000.000000   
    I20S36Z   ZN            0.360000   S             0.200000   
    I20S36Z   DEN           0.013004   WT            1.000000   
    I20S36Z   COST        400.000000   PRICE       500.000000   
    I20S36Z   SCALE      2000.000000   
    I80ZN00   ZN            0.800000   DEN           0.016667   
    I80ZN00   WT            1.000000   COST        160.000000   
    I80ZN00   PRICE       200.000000   SCALE      2000.000000   
    I39MO00   DEN           0.016667   WT            1.000000   
    I39MO00   COST       1500.000000   PRICE      1875.000000   
    I39MO00   SCALE      2000.000000   
    I30FE00   FE            0.300000   DEN           0.015000   
    I30FE00   WT            1.000000   COST        300.000000   
    I30FE00   PRICE       375.000000   SCALE      2000.000000   
    I05FECH   FE            0.050000   FE/C          0.050000   
    I05FECH   DEN           0.015000   WT            1.000000   
    I05FECH   COST       1400.000000   PRICE      1750.000000   
    I05FECH   SCALE      2000.000000   
    I55MN00   MN            0.550000   DEN           0.016667   
    I55MN00   WT            1.000000   COST        240.000000   
    I55MN00   PRICE       300.000000   SCALE      2000.000000   
    IFE100    ZN            0.070000   CU            0.010000   
    IFE100    FE            0.180000   MO            0.020000   
    IFE100    MN            0.070000   WSMN          0.070000   
    IFE100    DEN           0.016667   WT            1.000000   
    IFE100    COST          0.200000   PRICE         0.250000   
    IFE100    SCALE         1.000000   
    IVLITE    DEN           0.050000   WT            1.000000   
    IVLITE    COST          1.250000   PRICE         1.562500   
    IVLITE    SCALE        50.000000   
    I000000   DEN           0.011111   WT            1.000000   
    I000000   COST         30.000000   PRICE        37.500000   
    I000000   SCALE      2000.000000   
    I042206   N             0.040000   P             0.220000   
    I042206   K             0.060000   AM-N          0.040000   
    I042206   CA            0.040000   ZN            0.008000   
    I042206   B             0.002000   FE            0.015000   
    I042206   MG            0.030000   WSMG          0.030000   
    I042206   S             0.090000   MN            0.015000   
    I042206   WSMN          0.001500   CL            0.020000   
    I042206   DEN           0.013850   WT            1.000000   
    I042206   COST          0.100000   PRICE         0.125000   
    I042206   SCALE         1.000000   
    I000728   P             0.070000   K             0.280000   
    I000728   CA            0.030000   ZN            0.003500   
    I000728   B             0.001300   FE            0.001000   
    I000728   MG            0.030000   WSMG          0.030000   
    I000728   S             0.080000   MN            0.010000   
    I000728   WSMN          0.001000   CL            0.210000   
    I000728   DEN           0.013850   WT            1.000000   
    I000728   COST          0.100000   PRICE         0.125000   
    I000728   SCALE         1.000000   
    I060618   N             0.060000   P             0.060000   
    I060618   K             0.180000   AM-N          0.030000   
    I060618   NI-N          0.030000   CA            0.040000   
    I060618   ZN            0.001000   B             0.000250   
    I060618   FE            0.001000   MG            0.040000   
    I060618   WSMG          0.040000   S             0.100000   
    I060618   MN            0.001000   WSMN          0.000100   
    I060618   CL            0.030000   DEN           0.013600   
    I060618   WT            1.000000   COST          0.071300   
    I060618   PRICE         0.089200   SCALE         1.000000   
    I030918   N             0.030000   P             0.090000   
    I030918   K             0.180000   AM-N          0.027500   
    I030918   NI-N          0.002500   CA            0.080000   
    I030918   ZN            0.003500   B             0.001300   
    I030918   FE            0.001000   MG            0.020000   
    I030918   WSMG          0.020000   S             0.090000   
    I030918   MN            0.010000   WSMN          0.001000   
    I030918   CL            0.140000   DEN           0.013600   
    I030918   WT            1.000000   COST          0.071300   
    I030918   PRICE         0.089200   SCALE         1.000000   
    I040812   N             0.040000   P             0.080000   
    I040812   K             0.120000   AM-N          0.020000   
    I040812   NI-N          0.020000   CA            0.060000   
    I040812   ZN            0.001000   B             0.000300   
    I040812   FE            0.001000   MG            0.040000   
    I040812   WSMG          0.040000   S             0.080000   
    I040812   MN            0.001000   WSMN          0.000100   
    I040812   CL            0.015000   DEN           0.013300   
    I040812   WT            1.000000   COST          0.078300   
    I040812   PRICE         0.097900   SCALE         1.000000   
    PRODUCT   WT           -1.000000   COST          0.000000   
    PRODUCT   PRICE         0.000000   SCALE         1.000000   
*234567890123456789012345678901234567890123456789012345678901
RHS
RANGES
ENDATA
